NAME: eil23_20
COMMENT: 568.56
VEHICLE: 3
TIME: 1.6943
DIMENSION: 23
CAPACITY: 4500
DELIVERY_SECTION
0 0 0
1 1 45
2 1 45
3 1 35
4 2 45
5 2 39
6 3 45
7 3 15
8 4 450
9 4 45
10 4 5
11 5 225
12 5 45
13 5 30
14 6 45
15 6 45
16 6 45
17 6 40
18 7 225
19 7 45
20 7 45
21 7 35
22 8 45
23 8 45
24 8 45
25 8 15
26 9 900
27 9 45
28 9 45
29 9 45
30 9 45
31 9 20
32 10 900
33 10 900
34 10 900
35 10 900
36 10 450
37 10 45
38 10 5
39 11 225
40 12 225
41 12 45
42 12 30
43 13 225
44 13 25
45 14 450
46 14 45
47 14 5
48 15 45
49 15 45
50 15 45
51 15 15
52 16 45
53 16 45
54 16 10
55 17 225
56 17 25
57 18 45
58 18 45
59 18 30
60 19 450
61 19 45
62 19 45
63 19 45
64 19 15
65 20 450
66 20 45
67 20 5
68 21 45
69 21 45
70 21 45
71 21 40
72 22 45
73 22 30
PICKUP_SECTION
NODE_SECTION
266 235
295 272
301 258
309 260
217 274
218 278
282 267
242 249
230 262
249 268
256 267
265 257
267 242
259 265
315 233
329 252
318 252
329 224
267 213
275 192
303 201
208 217
326 181
DISTANCE_SECTION
DEPOT_SECTION
0
EOF